c description: Random 3-CNF over 21 variables and 89 clauses
c generator: CNFgen (0.9.2)
c copyright: (C) 2012-2022 Massimo Lauria <massimo.lauria@uniroma1.it>
c url: https://massimolauria.net/cnfgen
c command line: cnfgen --output CNF_4.28/21_bit_89_59.cnf randkcnf 3 21 89
c
p cnf 21 89
-7 10 -14 0
-8 14 15 0
12 18 20 0
13 16 17 0
5 -9 16 0
-6 11 20 0
-1 3 -5 0
5 9 -19 0
-14 15 16 0
-3 -9 -11 0
-2 -11 -14 0
2 -8 -16 0
3 16 -21 0
6 9 14 0
8 10 19 0
-2 17 -19 0
-5 -9 12 0
14 16 -21 0
4 14 19 0
-6 8 21 0
7 -14 -15 0
-12 -16 -19 0
-5 10 -20 0
-2 -9 -20 0
12 -14 21 0
-2 12 -17 0
3 -12 17 0
1 3 6 0
3 9 20 0
-3 10 -12 0
-4 -7 -20 0
-4 11 -20 0
10 15 21 0
-7 15 18 0
3 20 -21 0
2 -3 -12 0
-9 18 -21 0
-7 12 20 0
-4 -5 19 0
-12 -16 -20 0
1 -4 -11 0
-10 17 19 0
-6 -16 -18 0
1 -3 13 0
1 14 19 0
-1 -3 21 0
7 -8 21 0
12 -15 -21 0
1 12 16 0
-4 5 6 0
8 12 -16 0
-10 12 16 0
-5 17 18 0
4 -7 11 0
3 7 8 0
12 -13 15 0
-6 -10 11 0
-5 7 14 0
-10 18 -20 0
-9 -14 19 0
-8 13 -20 0
2 -13 14 0
2 -11 -15 0
4 8 16 0
-6 13 -15 0
9 -16 -17 0
2 -14 -21 0
9 10 -11 0
9 -10 11 0
-5 8 -11 0
-6 8 -14 0
-2 15 20 0
-17 -20 21 0
4 8 -17 0
-5 15 -16 0
1 -12 18 0
-2 -14 -20 0
4 13 14 0
-1 -10 21 0
-1 2 19 0
2 3 -11 0
8 12 18 0
6 -16 18 0
-6 15 19 0
5 -7 -10 0
7 14 18 0
6 8 -21 0
-4 17 -20 0
8 -14 -20 0
